%-----------------------------------------------------------------------------%
% Dual Arm Multi Capacity Multi Tool Scheduling / Routing
% Assembly Configuration
% Auto Generated by python script, authored by Johan Ludde Wessen 
%-----------------------------------------------------------------------------%


task_durations = [|25, 29, 24, 32, 26, 28, 29, 21, 54, 52, 51, 47, 52, 57, 54, 46, 25, 31, 32, 31, 31, 33,  4,  5,  7,  7,  6,  8,  8
                  |21, 27, 21, 34, 32, 23, 33, 21, 50, 52, 47, 46, 46, 55, 52, 50, 28, 25, 34, 30, 33, 29,  6,  5,  5,  5,  7,  7,  8
                  |];


TRAY_TASKS = 1..6;
CAMERA_TASKS = 17..22;
OUTPUT_TASKS = { 16 };


empty_gripper_tasks = 23..29;


gripper_pick_tasks_orders = [|7, 15, -1
|8, 16, -1
|];

suction_pick_tasks_orders = [|1, 17, 9, -1
|2, 18, 10, -1
|3, 19, 11, -1
|4, 20, 12, -1
|5, 21, 13, -1
|6, 22, 14, -1
|];

fixture_task_orders = [|9, 23, 10, 24, 11, 25, 12, 26, 7, -1
|13, 27, 14, 28, 15, 29, 8, -1, -1, -1
|];

